100
547 125 281 431 17 499 953 429 835 961 21 14 437 960 455 798 672 46 466 644 160 133 668 301 691 278 77 375 788 349 546 774 278 867 42 451 242 171 900 167 781 472 946 886 17 952 559 727 106 719 722 965 596 40 655 666 130 809 37 588 623 947 168 219 677 484 919 160 660 214 932 368 416 511 930 841 625 319 628 881 466 149 790 989 298 53 324 193 648 504 847 197 640 585 129 496 212 23 392 377 
447 189 350 361 29 415 1029 477 893 950 97 70 391 920 465 785 700 65 369 675 183 191 723 356 675 183 100 465 846 437 555 778 237 936 70 542 299 221 892 125 684 521 995 836 104 895 656 739 82 659 808 982 678 19 734 639 76 904 41 622 640 925 181 191 679 571 951 181 588 282 890 453 346 590 1020 895 546 307 638 936 511 52 864 1068 326 77 305 255 646 425 927 189 713 623 223 553 272 24 436 305 
24285
